0 20
1 20
2 20
3 20
4 20
5 20
0 40
1 40
2 40
3 40
4 40
5 40
0 60
1 60
2 60
3 60
4 60
5 60
0 80
1 80
2 80
3 80
4 80
5 80
0 100
1 100
2 100
3 100
4 100
5 100
0 120
1 120
2 120
3 120
4 120
5 120
0 140
1 140
2 140
3 140
4 140
5 140
0 160
1 160
2 160
